\ENCODING=ISO-8859-1
\Problem name: GMKP - Callable Library

Maximize
 obj: 86 x_1_1 + 73 x_1_2 + 59 x_1_3 + 66 x_1_4 + 37 x_1_5 + 97 x_1_6
      + 14 x_1_7 + 26 x_1_8 + 37 x_1_9 + 81 x_1_10 + 81 x_1_11 + 83 x_1_12
      + 15 x_1_13 + 83 x_1_14 + 27 x_1_15 + 96 x_1_16 + 42 x_1_17 + 87 x_1_18
      + 40 x_1_19 + 11 x_1_20 + 42 x_1_21 + 40 x_1_22 + 78 x_1_23 + 88 x_1_24
      + 75 x_1_25 + 70 x_2_1 + 100 x_2_2 + 30 x_2_3 + 12 x_2_4 + 18 x_2_5
      + 28 x_2_6 + 40 x_2_7 + 39 x_2_8 + 21 x_2_9 + 98 x_2_10 + 90 x_2_11
      + 52 x_2_12 + 44 x_2_13 + 70 x_2_14 + 50 x_2_15 + 26 x_2_16 + 33 x_2_17
      + 32 x_2_18 + 81 x_2_19 + 57 x_2_20 + 26 x_2_21 + 58 x_2_22 + 12 x_2_23
      + 20 x_2_24 + 83 x_2_25
Subject To
 capacity_1:            94 x_1_1 + 12 x_1_2 + 59 x_1_3 + 63 x_1_4 + 33 x_1_5
                        + 88 x_1_6 + 44 x_1_7 + 84 x_1_8 + 12 x_1_9 + 82 x_1_10
                        + 18 x_1_11 + 100 x_1_12 + 49 x_1_13 + 69 x_1_14
                        + 54 x_1_15 + 69 x_1_16 + 17 x_1_17 + 78 x_1_18
                        + 36 x_1_19 + 62 x_1_20 + 88 x_1_21 + 95 x_1_22
                        + 46 x_1_23 + 33 x_1_24 + 40 x_1_25 + 59 y_1_1
                        + 55 y_1_2 + 88 y_1_3 + 52 y_1_4 + 63 y_1_5 <= 712
 capacity_2:            94 x_2_1 + 12 x_2_2 + 59 x_2_3 + 63 x_2_4 + 33 x_2_5
                        + 88 x_2_6 + 44 x_2_7 + 84 x_2_8 + 12 x_2_9 + 82 x_2_10
                        + 18 x_2_11 + 100 x_2_12 + 49 x_2_13 + 69 x_2_14
                        + 54 x_2_15 + 69 x_2_16 + 17 x_2_17 + 78 x_2_18
                        + 36 x_2_19 + 62 x_2_20 + 88 x_2_21 + 95 x_2_22
                        + 46 x_2_23 + 33 x_2_24 + 40 x_2_25 + 59 y_2_1
                        + 55 y_2_2 + 88 y_2_3 + 52 y_2_4 + 63 y_2_5 <= 573
 max_one_bin_x_1:       x_1_1 + x_2_1 <= 1
 max_one_bin_x_2:       x_1_2 + x_2_2 <= 1
 max_one_bin_x_3:       x_1_3 + x_2_3 <= 1
 max_one_bin_x_4:       x_1_4 + x_2_4 <= 1
 max_one_bin_x_5:       x_1_5 + x_2_5 <= 1
 max_one_bin_x_6:       x_1_6 + x_2_6 <= 1
 max_one_bin_x_7:       x_1_7 + x_2_7 <= 1
 max_one_bin_x_8:       x_1_8 + x_2_8 <= 1
 max_one_bin_x_9:       x_1_9 + x_2_9 <= 1
 max_one_bin_x_10:      x_1_10 + x_2_10 <= 1
 max_one_bin_x_11:      x_1_11 + x_2_11 <= 1
 max_one_bin_x_12:      x_1_12 + x_2_12 <= 1
 max_one_bin_x_13:      x_1_13 + x_2_13 <= 1
 max_one_bin_x_14:      x_1_14 + x_2_14 <= 1
 max_one_bin_x_15:      x_1_15 + x_2_15 <= 1
 max_one_bin_x_16:      x_1_16 + x_2_16 <= 1
 max_one_bin_x_17:      x_1_17 + x_2_17 <= 1
 max_one_bin_x_18:      x_1_18 + x_2_18 <= 1
 max_one_bin_x_19:      x_1_19 + x_2_19 <= 1
 max_one_bin_x_20:      x_1_20 + x_2_20 <= 1
 max_one_bin_x_21:      x_1_21 + x_2_21 <= 1
 max_one_bin_x_22:      x_1_22 + x_2_22 <= 1
 max_one_bin_x_23:      x_1_23 + x_2_23 <= 1
 max_one_bin_x_24:      x_1_24 + x_2_24 <= 1
 max_one_bin_x_25:      x_1_25 + x_2_25 <= 1
 max_b_bin_y_1:         y_1_1 + y_2_1 <= 1
 max_b_bin_y_2:         y_1_2 + y_2_2 <= 2
 max_b_bin_y_3:         y_1_3 + y_2_3 <= 1
 max_b_bin_y_4:         y_1_4 + y_2_4 <= 1
 max_b_bin_y_5:         y_1_5 + y_2_5 <= 1
 dependent_decision_1:  x_1_1 + x_1_18 + x_1_23 - 25 y_1_1 <= 0
 dependent_decision_2:  x_1_2 + x_1_8 + x_1_11 + x_1_12 + x_1_20 + x_1_21
                        + x_1_24 - 25 y_1_2 <= 0
 dependent_decision_3:  x_1_3 + x_1_9 + x_1_17 + x_1_25 - 25 y_1_3 <= 0
 dependent_decision_4:  x_1_4 + x_1_7 + x_1_10 - 25 y_1_4 <= 0
 dependent_decision_5:  x_1_5 + x_1_6 + x_1_13 + x_1_14 + x_1_15 + x_1_16
                        + x_1_19 + x_1_22 - 25 y_1_5 <= 0
 dependent_decision_6:  x_2_1 + x_2_18 + x_2_23 - 25 y_2_1 <= 0
 dependent_decision_7:  x_2_2 + x_2_8 + x_2_11 + x_2_12 + x_2_20 + x_2_21
                        + x_2_24 - 25 y_2_2 <= 0
 dependent_decision_8:  x_2_3 + x_2_9 + x_2_17 + x_2_25 - 25 y_2_3 <= 0
 dependent_decision_9:  x_2_4 + x_2_7 + x_2_10 - 25 y_2_4 <= 0
 dependent_decision_10: x_2_5 + x_2_6 + x_2_13 + x_2_14 + x_2_15 + x_2_16
                        + x_2_19 + x_2_22 - 25 y_2_5 <= 0
Bounds
 0 <= x_1_1 <= 1
 0 <= x_1_2 <= 1
 0 <= x_1_3 <= 1
 0 <= x_1_4 <= 1
 0 <= x_1_5 <= 1
 0 <= x_1_6 <= 1
 0 <= x_1_7 <= 1
 0 <= x_1_8 <= 1
 0 <= x_1_9 <= 1
 0 <= x_1_10 <= 1
 0 <= x_1_11 <= 1
 0 <= x_1_12 <= 1
 0 <= x_1_13 <= 1
 0 <= x_1_14 <= 1
 0 <= x_1_15 <= 1
 0 <= x_1_16 <= 1
 0 <= x_1_17 <= 1
 0 <= x_1_18 <= 1
 0 <= x_1_19 <= 1
 0 <= x_1_20 <= 1
 0 <= x_1_21 <= 1
 0 <= x_1_22 <= 1
 0 <= x_1_23 <= 1
 0 <= x_1_24 <= 1
 0 <= x_1_25 <= 1
 0 <= x_2_1 <= 1
 0 <= x_2_2 <= 1
 0 <= x_2_3 <= 1
 0 <= x_2_4 <= 1
 0 <= x_2_5 <= 1
 0 <= x_2_6 <= 1
 0 <= x_2_7 <= 1
 0 <= x_2_8 <= 1
 0 <= x_2_9 <= 1
 0 <= x_2_10 <= 1
 0 <= x_2_11 <= 1
 0 <= x_2_12 <= 1
 0 <= x_2_13 <= 1
 0 <= x_2_14 <= 1
 0 <= x_2_15 <= 1
 0 <= x_2_16 <= 1
 0 <= x_2_17 <= 1
 0 <= x_2_18 <= 1
 0 <= x_2_19 <= 1
 0 <= x_2_20 <= 1
 0 <= x_2_21 <= 1
 0 <= x_2_22 <= 1
 0 <= x_2_23 <= 1
 0 <= x_2_24 <= 1
 0 <= x_2_25 <= 1
 0 <= y_1_1 <= 1
 0 <= y_1_2 <= 1
 0 <= y_1_3 <= 1
 0 <= y_1_4 <= 1
 0 <= y_1_5 <= 1
 0 <= y_2_1 <= 1
 0 <= y_2_2 <= 1
 0 <= y_2_3 <= 1
 0 <= y_2_4 <= 1
 0 <= y_2_5 <= 1
Binaries
 x_1_1  x_1_2  x_1_3  x_1_4  x_1_5  x_1_6  x_1_7  x_1_8  x_1_9  x_1_10  x_1_11 
 x_1_12  x_1_13  x_1_14  x_1_15  x_1_16  x_1_17  x_1_18  x_1_19  x_1_20 
 x_1_21  x_1_22  x_1_23  x_1_24  x_1_25  x_2_1  x_2_2  x_2_3  x_2_4  x_2_5 
 x_2_6  x_2_7  x_2_8  x_2_9  x_2_10  x_2_11  x_2_12  x_2_13  x_2_14  x_2_15 
 x_2_16  x_2_17  x_2_18  x_2_19  x_2_20  x_2_21  x_2_22  x_2_23  x_2_24 
 x_2_25  y_1_1  y_1_2  y_1_3  y_1_4  y_1_5  y_2_1  y_2_2  y_2_3  y_2_4  y_2_5 
End
